1484
1   1   170  54   0 1 9 17 25 33 36 28 20 12 4 0
1   2   100  27   0 26 34 18 10 2 0
1   3   128  51   0 7 15 23 31 39 22 14 6 0
1   4   170  54   0 3 11 19 27 35 37 29 21 13 5 0
1   5   174  30   0 67 75 40 32 24 16 8 0
2   1   128  51   0 42 50 58 66 74 59 51 43 0
2   2   170  54   0 45 53 61 69 77 80 72 64 56 48 0
2   3   100  27   0 44 52 60 68 76 0
2   4   174  30   0 41 49 57 65 73 38 30 0
2   5   170  54   0 47 55 63 71 79 78 70 62 54 46 0